194 300 38 19 43 38 14 15 14 25 37 40 24 29 35 45 32 16 46 19 15 41 38 35 18 41 45 15 37 24 27 39 46 16 50 40 44 14 46 10 29 32 42 45 12 26 39 34 32 36 44 39 28 31 25 37 24 21 44 10 36 22 41 33 28 42 23 23 48 20 23 28 44 14 22 46 32 10 29 15 38 22 45 16 46 21 45 19 33 38 21 20 50 13 43 27 45 17 40 43 27 15 20 20 19 35 15 44 35 35 49 23 49 45 31 44 16 25 14 39 12 27 10 11 30 43 28 25 12 19 19 29 24 29 42 36 13 49 29 41 35 27 15 34 24 36 29 32 10 36 20 14 12 22 15 33 14 35 50 16 44 18 38 20 39 31 46 45 29 24 35 14 43 42 40 18 29 20 40 31 46 11 35 49 23 42 33 28 26 32 36 21 40 25 33 28 